SCIP version 5.0.0 [precision: 8 byte] [memory: block] [mode: optimized] [LP solver: NONE] [GitHash: 3bbd232]
Copyright (C) 2002-2017 Konrad-Zuse-Zentrum fuer Informationstechnik Berlin (ZIB)

External codes: 
  Readline EditLine w  GNU library for command line editing (gnu.org/s/readline)
  CppAD 20160000.1     Algorithmic Differentiation of C++ algorithms developed by B. Bell (www.coin-or.org/CppAD)
  ZLIB 1.2.5           General purpose compression library by J. Gailly and M. Adler (zlib.net)
  GMP 6.1.2            GNU Multiple Precision Arithmetic Library developed by T. Granlund (gmplib.org)

user parameter file <scip.set> not found - using default parameters

read problem <../../Split_data/output/biodeg/3/1_sample_biodeg.logreg>
============

File name	:	../../Split_data/output/biodeg/3/1_sample_biodeg.logreg
Problem name 	:	1_sample_biodeg
Number of data	:	844
Number of var	:	41
The given data has linear independence

[dim=1] time: 0.043285
[dim=2] time: 0.082205
[dim=3] time: 0.115164
[dim=4] time: 0.147578
[dim=5] time: 0.177056
[dim=6] time: 0.206157
[dim=7] time: 0.239087
[dim=8] time: 0.266583
[dim=9] time: 0.294039
[dim=10] time: 0.322393
[dim=11] time: 0.350189
[dim=12] time: 0.37588
[dim=13] time: 0.393995
[dim=14] time: 0.412573
[dim=15] time: 0.436018
[dim=16] time: 0.454122
[dim=17] time: 0.472285
[dim=18] time: 0.490482
[dim=19] time: 0.511127
[dim=20] time: 0.538375
[dim=21] time: 0.557322
[dim=22] time: 0.575957
[dim=23] time: 0.594364
[dim=24] time: 0.609786
[dim=25] time: 0.625757
[dim=26] time: 0.640051
[dim=27] Time of forward = 0.654796sec.
AIC: 512.621
k: 26

[dim=41] time: 0.142345
[dim=40] time: 0.196999
[dim=39] time: 0.248491
[dim=38] time: 0.301895
[dim=37] time: 0.348363
[dim=36] time: 0.397491
[dim=35] time: 0.449875
[dim=34] time: 0.493683
[dim=33] time: 0.54096
[dim=32] time: 0.592537
[dim=31] time: 0.631722
[dim=30] time: 0.671761
[dim=29] time: 0.70906
[dim=28] time: 0.742969
[dim=27] time: 0.783699
[dim=26] time: 0.825899
[dim=25] time: 0.857877
[dim=24] time: 0.88558
[dim=23] Time of backward = 0.914426sec.
AIC: 511.195
k: 24
